30 1 4
230 870 555 578 995 596 800 819 630 504 747 816 996 509 700 238 395 870 236 292 602 556 10 52 303 290 195 264 670 299 
860 900 169 415 477 163 10 277 981 640 781 727 456 777 235 155 14 630 25 250 922 626 805 931 677 108 221 872 372 891 
171 231 790 339 646 267 501 656 544 482 295 324 209 750 101 444 905 114 73 929 363 995 554 167 925 231 275 146 103 646 
36 273 877 826 611 522 92 111 177 636 592 472 960 800 222 60 243 126 173 316 54 536 310 608 703 235 839 977 381 941 
6220 4170 2130 4990 2420 8240 200 3340 9340 1970 9690 5260 6680 9290 3260 8890 9880 5690 150 1610 8850 690 6960 1950 6760 3990 4290 5140 3750 8100 
76950
